p cnf 539 514
81 196 0
-81 -196 0
88 442 0
-88 -442 0
90 203 0
-90 -203 0
118 450 0
-118 -450 0
93 209 0
-93 -209 0
124 455 0
-124 -455 0
96 215 0
-96 -215 0
130 460 0
-130 -460 0
99 218 0
-99 -218 0
136 465 0
-136 -465 0
102 221 0
-102 -221 0
142 470 0
-142 -470 0
105 224 0
-105 -224 0
148 475 0
-148 -475 0
108 227 0
-108 -227 0
154 480 0
-154 -480 0
111 230 0
-111 -230 0
160 485 0
-160 -485 0
179 81 0
179 442 0
-179 -81 -442 0
-233 -332 0
-233 -88 0
233 332 88 0
-236 -415 0
-236 -88 0
236 415 88 0
182 90 0
182 450 0
-182 -90 -450 0
185 93 0
185 455 0
-185 -93 -455 0
188 96 0
188 460 0
-188 -96 -460 0
191 99 0
191 465 0
-191 -99 -465 0
194 102 0
194 470 0
-194 -102 -470 0
200 105 0
200 475 0
-200 -105 -475 0
206 108 0
206 480 0
-206 -108 -480 0
212 111 0
212 485 0
-212 -111 -485 0
-239 -339 0
-239 -118 0
239 339 118 0
-263 -419 0
-263 -118 0
263 419 118 0
-242 -345 0
-242 -124 0
242 345 124 0
-266 -422 0
-266 -124 0
266 422 124 0
-245 -351 0
-245 -130 0
245 351 130 0
-269 -425 0
-269 -130 0
269 425 130 0
-248 -357 0
-248 -136 0
248 357 136 0
-272 -428 0
-272 -136 0
272 428 136 0
-251 -363 0
-251 -142 0
251 363 142 0
-275 -431 0
-275 -142 0
275 431 142 0
-254 -366 0
-254 -148 0
254 366 148 0
-278 -434 0
-278 -148 0
278 434 148 0
-257 -369 0
-257 -154 0
257 369 154 0
-281 -437 0
-281 -154 0
281 437 154 0
-260 -372 0
-260 -160 0
260 372 160 0
-284 -440 0
-284 -160 0
284 440 160 0
-176 179 0
-176 182 0
-176 185 0
-176 188 0
-176 191 0
-176 194 0
-176 200 0
-176 206 0
-176 212 0
176 -179 -182 -185 -188 -191 -194 -200 -206 -212 0
211 176 0
-211 -176 0
229 176 0
-229 -176 0
175 176 0
-175 -176 0
-235 -179 -211 0
-235 179 211 0
235 -179 211 0
235 179 -211 0
-262 -182 -211 0
-262 182 211 0
262 -182 211 0
262 182 -211 0
-265 -185 -211 0
-265 185 211 0
265 -185 211 0
265 185 -211 0
-268 -188 -211 0
-268 188 211 0
268 -188 211 0
268 188 -211 0
-271 -191 -211 0
-271 191 211 0
271 -191 211 0
271 191 -211 0
-274 -194 -211 0
-274 194 211 0
274 -194 211 0
274 194 -211 0
443 196 0
443 229 0
-443 -196 -229 0
-277 -200 -211 0
-277 200 211 0
277 -200 211 0
277 200 -211 0
447 229 0
447 203 0
-447 -229 -203 0
-280 -206 -211 0
-280 206 211 0
280 -206 211 0
280 206 -211 0
452 229 0
452 209 0
-452 -229 -209 0
-283 -212 -211 0
-283 212 211 0
283 -212 211 0
283 212 -211 0
457 229 0
457 215 0
-457 -229 -215 0
462 229 0
462 218 0
-462 -229 -218 0
467 229 0
467 221 0
-467 -229 -221 0
472 229 0
472 224 0
-472 -229 -224 0
477 229 0
477 227 0
-477 -229 -227 0
482 229 0
482 230 0
-482 -229 -230 0
321 235 0
321 233 0
-321 -235 -233 0
296 235 0
296 236 0
-296 -235 -236 0
324 262 0
324 239 0
-324 -262 -239 0
327 265 0
327 242 0
-327 -265 -242 0
330 268 0
330 245 0
-330 -268 -245 0
336 271 0
336 248 0
-336 -271 -248 0
342 274 0
342 251 0
-342 -274 -251 0
348 277 0
348 254 0
-348 -277 -254 0
354 280 0
354 257 0
-354 -280 -257 0
360 283 0
360 260 0
-360 -283 -260 0
298 262 0
298 263 0
-298 -262 -263 0
300 265 0
300 266 0
-300 -265 -266 0
302 268 0
302 269 0
-302 -268 -269 0
304 271 0
304 272 0
-304 -271 -272 0
306 274 0
306 275 0
-306 -274 -275 0
308 277 0
308 278 0
-308 -277 -278 0
310 280 0
310 281 0
-310 -280 -281 0
312 283 0
312 284 0
-312 -283 -284 0
-318 321 0
-318 324 0
-318 327 0
-318 330 0
-318 336 0
-318 342 0
-318 348 0
-318 354 0
-318 360 0
318 -321 -324 -327 -330 -336 -342 -348 -354 -360 0
375 296 0
-375 -296 0
378 298 0
-378 -298 0
381 300 0
-381 -300 0
384 302 0
-384 -302 0
387 304 0
-387 -304 0
390 306 0
-390 -306 0
393 308 0
-393 -308 0
396 310 0
-396 -310 0
399 312 0
-399 -312 0
359 318 0
-359 -318 0
371 318 0
-371 -318 0
317 318 0
-317 -318 0
-374 -321 -359 0
-374 321 359 0
374 -321 359 0
374 321 -359 0
-377 -324 -359 0
-377 324 359 0
377 -324 359 0
377 324 -359 0
-380 -327 -359 0
-380 327 359 0
380 -327 359 0
380 327 -359 0
-383 -330 -359 0
-383 330 359 0
383 -330 359 0
383 330 -359 0
444 332 0
444 371 0
-444 -332 -371 0
-386 -336 -359 0
-386 336 359 0
386 -336 359 0
386 336 -359 0
448 371 0
448 339 0
-448 -371 -339 0
-389 -342 -359 0
-389 342 359 0
389 -342 359 0
389 342 -359 0
453 371 0
453 345 0
-453 -371 -345 0
-392 -348 -359 0
-392 348 359 0
392 -348 359 0
392 348 -359 0
458 371 0
458 351 0
-458 -371 -351 0
-395 -354 -359 0
-395 354 359 0
395 -354 359 0
395 354 -359 0
463 371 0
463 357 0
-463 -371 -357 0
-398 -360 -359 0
-398 360 359 0
398 -360 359 0
398 360 -359 0
468 371 0
468 363 0
-468 -371 -363 0
473 371 0
473 366 0
-473 -371 -366 0
478 371 0
478 369 0
-478 -371 -369 0
483 371 0
483 372 0
-483 -371 -372 0
401 374 0
401 375 0
-401 -374 -375 0
402 377 0
402 378 0
-402 -377 -378 0
403 380 0
403 381 0
-403 -380 -381 0
404 383 0
404 384 0
-404 -383 -384 0
405 386 0
405 387 0
-405 -386 -387 0
406 389 0
406 390 0
-406 -389 -390 0
407 392 0
407 393 0
-407 -392 -393 0
408 395 0
408 396 0
-408 -395 -396 0
409 398 0
409 399 0
-409 -398 -399 0
-413 401 0
-413 402 0
-413 403 0
-413 404 0
-413 405 0
-413 406 0
-413 407 0
-413 408 0
-413 409 0
413 -401 -402 -403 -404 -405 -406 -407 -408 -409 0
439 413 0
-439 -413 0
412 413 0
-412 -413 0
445 415 0
445 439 0
-445 -415 -439 0
449 439 0
449 419 0
-449 -439 -419 0
454 439 0
454 422 0
-454 -439 -422 0
459 439 0
459 425 0
-459 -439 -425 0
464 439 0
464 428 0
-464 -439 -428 0
469 439 0
469 431 0
-469 -439 -431 0
474 439 0
474 434 0
-474 -439 -434 0
479 439 0
479 437 0
-479 -439 -437 0
484 439 0
484 440 0
-484 -439 -440 0
487 442 0
487 443 0
487 444 0
487 445 0
-487 -442 -443 -444 -445 0
536 447 0
536 448 0
536 449 0
536 450 0
-536 -447 -448 -449 -450 0
532 452 0
532 453 0
532 454 0
532 455 0
-532 -452 -453 -454 -455 0
522 457 0
522 458 0
522 459 0
522 460 0
-522 -457 -458 -459 -460 0
529 462 0
529 463 0
529 464 0
529 465 0
-529 -462 -463 -464 -465 0
500 467 0
500 468 0
500 469 0
500 470 0
-500 -467 -468 -469 -470 0
523 472 0
523 473 0
523 474 0
523 475 0
-523 -472 -473 -474 -475 0
504 477 0
504 478 0
504 479 0
504 480 0
-504 -477 -478 -479 -480 0
496 482 0
496 483 0
496 484 0
496 485 0
-496 -482 -483 -484 -485 0
506 487 0
-506 -487 0
-507 536 0
-507 532 0
-507 522 0
-507 529 0
-507 500 0
-507 523 0
-507 504 0
-507 496 0
507 -536 -532 -522 -529 -500 -523 -504 -496 0
510 522 0
-510 -522 0
514 500 0
-514 -500 0
519 523 0
-519 -523 0
524 504 0
-524 -504 0
-505 -506 0
-505 -507 0
505 506 507 0
537 532 0
537 510 0
-537 -532 -510 0
538 532 0
538 522 0
538 514 0
538 529 0
-538 -532 -522 -514 -529 0
534 529 0
534 522 0
534 519 0
-534 -529 -522 -519 0
539 532 0
539 522 0
539 523 0
539 524 0
-539 -532 -522 -523 -524 0
525 536 0
525 532 0
525 537 0
525 529 0
-525 -536 -532 -537 -529 0
530 536 0
530 532 0
530 538 0
530 534 0
-530 -536 -532 -538 -534 0
535 536 0
535 537 0
535 538 0
535 539 0
-535 -536 -537 -538 -539 0